1244
1218
1175
1224
1238
1227
1217
1274
1241
1357
1367
1342
1345
1339
1360
1462
1377
1332
1348
1642
1561
1518
1644
1558
1591
1652
1603
1583
1528
1764
1774
1788
1828
2007
1819
1771
1673
1795
1651
1906
1884
1809
1948
1997
1957
1807
1912
1931
1833